Welcome to the CBC MILP Solver 
Version: 2.10.3 
Build Date: Dec 15 2019 

command line - /work/zhang-x2/users/yc2632/miniconda3/envs/newpt2/lib/python3.9/site-packages/pulp/solverdir/cbc/linux/64/cbc /tmp/e02a01931cd142a180b9ea9b9418aa6d-pulp.mps sec 900 timeMode elapsed branch printingOptions all solution /tmp/e02a01931cd142a180b9ea9b9418aa6d-pulp.sol (default strategy 1)
At line 2 NAME          MODEL
At line 3 ROWS
At line 362 COLUMNS
At line 2207 RHS
At line 2565 BOUNDS
At line 2674 ENDATA
Problem MODEL has 357 rows, 108 columns and 1445 elements
Coin0008I MODEL read with 0 errors
seconds was changed from 1e+100 to 900
Option for timeMode changed from cpu to elapsed
Continuous objective value is 1.001 - 0.00 seconds
Cgl0003I 5 fixed, 0 tightened bounds, 38 strengthened rows, 0 substitutions
Cgl0003I 0 fixed, 0 tightened bounds, 26 strengthened rows, 0 substitutions
Cgl0003I 0 fixed, 0 tightened bounds, 17 strengthened rows, 0 substitutions
Cgl0003I 0 fixed, 0 tightened bounds, 17 strengthened rows, 0 substitutions
Cgl0003I 0 fixed, 0 tightened bounds, 15 strengthened rows, 0 substitutions
Cgl0003I 0 fixed, 0 tightened bounds, 13 strengthened rows, 0 substitutions
Cgl0003I 0 fixed, 0 tightened bounds, 3 strengthened rows, 0 substitutions
Cgl0004I processed model has 63 rows, 30 columns (21 integer (21 of which binary)) and 263 elements
Cutoff increment increased from 1e-05 to 0.000999
Cbc0038I Initial state - 0 integers unsatisfied sum - 0
Cbc0038I Solution found of 1.205
Cbc0038I Relaxing continuous gives 1.205
Cbc0038I Before mini branch and bound, 21 integers at bound fixed and 7 continuous
Cbc0038I Mini branch and bound did not improve solution (0.01 seconds)
Cbc0038I Freeing continuous variables gives a solution of 1.205
Cbc0038I After 0.01 seconds - Feasibility pump exiting with objective of 1.205 - took 0.00 seconds
Cbc0012I Integer solution of 1.205 found by feasibility pump after 0 iterations and 0 nodes (0.01 seconds)
Cbc0001I Search completed - best objective 1.205, took 0 iterations and 0 nodes (0.01 seconds)
Cbc0035I Maximum depth 0, 0 variables fixed on reduced cost
Cuts at root node changed objective from 1.205 to 1.205
Probing was tried 0 times and created 0 cuts of which 0 were active after adding rounds of cuts (0.000 seconds)
Gomory was tried 0 times and created 0 cuts of which 0 were active after adding rounds of cuts (0.000 seconds)
Knapsack was tried 0 times and created 0 cuts of which 0 were active after adding rounds of cuts (0.000 seconds)
Clique was tried 0 times and created 0 cuts of which 0 were active after adding rounds of cuts (0.000 seconds)
MixedIntegerRounding2 was tried 0 times and created 0 cuts of which 0 were active after adding rounds of cuts (0.000 seconds)
FlowCover was tried 0 times and created 0 cuts of which 0 were active after adding rounds of cuts (0.000 seconds)
TwoMirCuts was tried 0 times and created 0 cuts of which 0 were active after adding rounds of cuts (0.000 seconds)
ZeroHalf was tried 0 times and created 0 cuts of which 0 were active after adding rounds of cuts (0.000 seconds)

Result - Optimal solution found

Objective value:                1.20500000
Enumerated nodes:               0
Total iterations:               0
Time (CPU seconds):             0.01
Time (Wallclock seconds):       0.01

Option for printingOptions changed from normal to all
Total time (CPU seconds):       0.01   (Wallclock seconds):       0.01

Root classes: ['7']
Status: Optimal
Solved x values:
['0.0', '1.2', '2.2', '4.2', '5.2', '7.3', '26.2', '27.2']
